
  22   10
  10   10   10   10   10   10   10   10   10   10

   0   0   0   0   0   0   0   0   0   0   0   4 2 4 7 9 
   6  10   0   0   0   0   0   0   0   0   0   2 5 3 
   2  10   0   0   0   0   0   0   0   0   0   2 15 6 
   7   0   0   0   0   0   0   0   0  10   0   1 6 
  10   0   0   0   0   0  10   0   0   0   0   4 15 14 13 11 
   7   0   0   0   0   0   0  10   0   0   0   3 12 10 8 
   2   0   0  10   0   0   0   0   0   0   0   3 17 16 10 
   4   0   0   0   0   0  10   0   0   0   0   5 21 17 16 14 13 
   5   0   0   0  10   0   0   0   0   0   0   1 11 
   1   0   0   0   0   0  10   0   0   0   0   3 21 14 13 
   8   0  10   0   0   0   0   0   0   0   0   1 12 
   2  10   0   0   0   0   0   0   0   0   0   3 21 17 16 
   9   0   0   0   0  10   0   0   0   0   0   3 20 19 18 
   7  10   0   0   0   0   0   0   0   0   0   3 20 19 18 
   6   0  10   0   0   0   0   0   0   0   0   3 20 19 18 
   1   0   0   0   0   0   0   0   0   0  10   2 19 18 
   6   0  10   0   0   0   0   0   0   0   0   1 18 
   4   0   0   0   0   0  10   0   0   0   0   1 22
   3   0   0   0   0   0   0   0  10   0   0   1 22
  10   0  10   0   0   0   0   0   0   0   0   1 22
   1   0   0   0   0   0  10   0   0   0   0   1 22
   0   0   0   0   0   0   0   0   0   0   0   0 
